unknown
(model
; cardinality of BoundSet is 4
(declare-sort BoundSet 0)
; rep: @uc_BoundSet_0
; rep: @uc_BoundSet_1
; rep: @uc_BoundSet_2
; rep: @uc_BoundSet_3
; cardinality of UnboundSet is 1
(declare-sort UnboundSet 0)
(declare-fun groundTerm_5 () UnboundSet)
(define-fun IsYoung ((BOUND_VARIABLE_450 BoundSet)) Bool true)
(define-fun IsCompetingFor ((BOUND_VARIABLE_457 BoundSet) (BOUND_VARIABLE_458 BoundSet)) Bool true)
(define-fun IsCompeting ((BOUND_VARIABLE_450 BoundSet)) Bool false)
)
unsat
(error "Cannot get model unless immediately preceded by SAT/NOT_ENTAILED or UNKNOWN response.")
